p cnf 14 46
1 -2 0
-1 2 0
1 3 4 5 0
1 3 -4 -5 0
1 -3 4 -5 0
1 -3 -4 5 0
-1 3 4 -5 0
-1 3 -4 5 0
-1 -3 4 5 0
-1 -3 -4 -5 0
6 -7 0
-6 7 0
8 -9 0
-8 9 0
2 3 10 0
2 -3 -10 0
-2 3 -10 0
-2 -3 10 0
4 6 8 10 -11 0
4 6 8 -10 11 0
4 6 -8 10 11 0
4 6 -8 -10 -11 0
4 -6 8 10 11 0
4 -6 8 -10 -11 0
4 -6 -8 10 -11 0
4 -6 -8 -10 11 0
-4 6 8 10 11 0
-4 6 8 -10 -11 0
-4 6 -8 10 -11 0
-4 6 -8 -10 11 0
-4 -6 8 10 -11 0
-4 -6 8 -10 11 0
-4 -6 -8 10 11 0
-4 -6 -8 -10 -11 0
7 12 0
-7 -12 0
12 -13 0
-12 13 0
5 11 14 0
5 -11 -14 0
-5 11 -14 0
-5 -11 14 0
9 13 14 0
9 -13 -14 0
-9 13 -14 0
-9 -13 14 0
